164 198 123 36 182 116 79 152 37 51 40 13 172 133 138 9 62 119 65 42 0 91 22 67 74 159 189 31 122 46 107 113 6 28 130 93 49 85 60 147 89 35 33 167 166 47 10 142 15 146 165 32 100 129 80 137 81 88 11 174 158 141 192 5 50 103 135 4 162 8 108 76 151 170 12 184 44 98 128 177 193 134 1 171 121 69 66 82 109 2 16 145 132 112 163 61 99 180 18 161 23 71 136 139 24 84 59 30 58 195 102 185 53 178 194 110 148 104 144 25 45 186 140 19 125 68 54 83 7 197 196 27 57 199 191 175 117 21 56 94 63 179 29 150 168 111 14 188 183 120 190 90 20 3 160 72 55 64 118 115 87 157 96 38 75 173 70 155 169 48 43 77 124 126 97 73 131 143 127 52 34 176 105 95 153 26 149 101 78 86 106 114 181 92 187 156 39 17 41 154 

